feasible solution found by trivial heuristic after 0.0 seconds, objective value 0.000000e+00
presolving:
(round 1, fast)       663 del vars, 0 del conss, 0 add conss, 0 chg bounds, 0 chg sides, 0 chg coeffs, 0 upgd conss, 0 impls, 2515 clqs
   (0.0s) running MILP presolver
   (0.1s) MILP presolver (2 rounds): 0 aggregations, 0 fixings, 0 bound changes
(round 2, exhaustive) 663 del vars, 11 del conss, 0 add conss, 0 chg bounds, 0 chg sides, 0 chg coeffs, 0 upgd conss, 0 impls, 2515 clqs
(round 3, exhaustive) 663 del vars, 11 del conss, 0 add conss, 0 chg bounds, 0 chg sides, 0 chg coeffs, 3790 upgd conss, 0 impls, 2515 clqs
   (0.2s) probing: 51/1426 (3.6%) - 0 fixings, 0 aggregations, 0 implications, 0 bound changes
   (0.2s) probing aborted: 50/50 successive totally useless probings
   (0.2s) symmetry computation started: requiring (bin +, int -, cont +), (fixed: bin -, int +, cont -)
   (0.2s) no symmetry present
presolving (4 rounds: 4 fast, 3 medium, 3 exhaustive):
 663 deleted vars, 11 deleted constraints, 0 added constraints, 0 tightened bounds, 0 added holes, 0 changed sides, 0 changed coefficients
 0 implications, 2515 cliques
presolved problem has 1426 variables (1426 bin, 0 int, 0 impl, 0 cont) and 3791 constraints
      1 constraints of type <knapsack>
   2515 constraints of type <setppc>
   1275 constraints of type <logicor>
Presolving Time: 0.22
transformed 1/2 original solutions to the transformed problem space

 time | node  | left  |LP iter|LP it/n|mem/heur|mdpt |vars |cons |rows |cuts |sepa|confs|strbr|  dualbound   | primalbound  |  gap   | compl. 
p 0.3s|     1 |     0 |     0 |     - |   locks|   0 |1426 |3791 |3791 |   0 |  0 |   0 |   0 | 7.342000e+03 | 1.199000e+03 | 512.34%| unknown
  0.4s|     1 |     0 |   804 |     - |    25M |   0 |1426 |3791 |3791 |   0 |  0 |   0 |   0 | 2.110094e+03 | 1.199000e+03 |  75.99%| unknown
  0.5s|     1 |     0 |   874 |     - |    27M |   0 |1426 |3791 |3792 |   1 |  1 |   0 |   0 | 2.104340e+03 | 1.199000e+03 |  75.51%| unknown
  0.6s|     1 |     0 |  1007 |     - |    28M |   0 |1426 |3791 |3793 |   2 |  2 |   0 |   0 | 2.099314e+03 | 1.199000e+03 |  75.09%| unknown
  0.7s|     1 |     0 |  1100 |     - |    30M |   0 |1426 |3791 |3794 |   3 |  3 |   0 |   0 | 2.097331e+03 | 1.199000e+03 |  74.92%| unknown
  0.8s|     1 |     0 |  1207 |     - |    30M |   0 |1426 |3791 |3796 |   5 |  4 |   0 |   0 | 2.094307e+03 | 1.199000e+03 |  74.67%| unknown
  0.9s|     1 |     0 |  1345 |     - |    33M |   0 |1426 |3791 |3797 |   6 |  5 |   0 |   0 | 2.091165e+03 | 1.199000e+03 |  74.41%| unknown
  1.0s|     1 |     0 |  1435 |     - |    33M |   0 |1426 |3791 |3798 |   7 |  6 |   0 |   0 | 2.088559e+03 | 1.199000e+03 |  74.19%| unknown
  1.1s|     1 |     0 |  1512 |     - |    36M |   0 |1426 |3791 |3799 |   8 |  7 |   0 |   0 | 2.088242e+03 | 1.199000e+03 |  74.17%| unknown
  1.2s|     1 |     0 |  1598 |     - |    36M |   0 |1426 |3791 |3800 |   9 |  8 |   0 |   0 | 2.087427e+03 | 1.199000e+03 |  74.10%| unknown
  1.3s|     1 |     0 |  1707 |     - |    38M |   0 |1426 |3791 |3801 |  10 |  9 |   0 |   0 | 2.086410e+03 | 1.199000e+03 |  74.01%| unknown
  1.4s|     1 |     0 |  1812 |     - |    38M |   0 |1426 |3791 |3802 |  11 | 10 |   0 |   0 | 2.085762e+03 | 1.199000e+03 |  73.96%| unknown
  1.4s|     1 |     0 |  1856 |     - |    38M |   0 |1426 |3791 |3803 |  12 | 11 |   0 |   0 | 2.085560e+03 | 1.199000e+03 |  73.94%| unknown
  1.4s|     1 |     0 |  1887 |     - |    39M |   0 |1426 |3791 |3804 |  13 | 12 |   0 |   0 | 2.085512e+03 | 1.199000e+03 |  73.94%| unknown
  1.5s|     1 |     0 |  1928 |     - |    39M |   0 |1426 |3791 |3806 |  15 | 13 |   0 |   0 | 2.085428e+03 | 1.199000e+03 |  73.93%| unknown
 time | node  | left  |LP iter|LP it/n|mem/heur|mdpt |vars |cons |rows |cuts |sepa|confs|strbr|  dualbound   | primalbound  |  gap   | compl. 
  1.5s|     1 |     0 |  2000 |     - |    40M |   0 |1426 |3791 |3809 |  18 | 14 |   0 |   0 | 2.085274e+03 | 1.199000e+03 |  73.92%| unknown
  1.6s|     1 |     0 |  2058 |     - |    40M |   0 |1426 |3791 |3813 |  22 | 15 |   0 |   0 | 2.085121e+03 | 1.199000e+03 |  73.91%| unknown
d 1.8s|     1 |     0 |  3118 |     - |farkasdi|   0 |1426 |3791 |3813 |   0 | 17 |   0 |   0 | 2.085121e+03 | 1.415000e+03 |  47.36%| unknown
L 8.7s|     1 |     0 |  3118 |     - |    rens|   0 |1426 |3791 |3813 |  22 | 17 |   0 |   0 | 2.085121e+03 | 1.639000e+03 |  27.22%| unknown
 10.4s|     1 |     0 |  3118 |     - |    41M |   0 |1426 |3791 |3813 |  22 | 17 |   0 |   0 | 2.085121e+03 | 1.639000e+03 |  27.22%| unknown
 10.4s|     1 |     0 |  3163 |     - |    41M |   0 |1426 |3791 |3814 |  23 | 18 |   0 |   0 | 2.085033e+03 | 1.639000e+03 |  27.21%| unknown
 10.4s|     1 |     0 |  3191 |     - |    41M |   0 |1426 |3791 |3815 |  24 | 19 |   0 |   0 | 2.084970e+03 | 1.639000e+03 |  27.21%| unknown
 18.2s|     1 |     2 |  3191 |     - |    41M |   0 |1426 |3791 |3815 |  24 | 19 |   0 |  35 | 2.055757e+03 | 1.639000e+03 |  25.43%| unknown
 55.2s|   100 |     7 | 15324 | 133.3 |    47M |  13 |1426 |3863 |3814 |  36 |  0 |  72 | 501 | 1.984149e+03 | 1.639000e+03 |  21.06%|  51.81%
 70.4s|   200 |     9 | 24423 | 112.0 |    53M |  17 |1426 |3877 |3822 |  79 |  0 |  86 | 530 | 1.903422e+03 | 1.639000e+03 |  16.13%|  59.56%
 80.0s|   300 |     9 | 33886 | 106.2 |    59M |  19 |1426 |3881 |3816 | 120 |  0 |  90 | 545 | 1.771209e+03 | 1.639000e+03 |   8.07%|  81.46%

SCIP Status        : problem is solved [optimal solution found]
Solving Time (sec) : 83.16
Solving Nodes      : 325
Primal Bound       : +1.63900000000000e+03 (267 solutions)
Dual Bound         : +1.63900000000000e+03
Gap                : 0.00 %
Solve Status: optimal
Solve Time: 83.16 seconds
